
<<< setup


<<< generate

Version identifier: 22.1.1.0 | 2022-11-28 | 9160aff4d
CPXPARAM_TimeLimit                               1800
Found incumbent of value 0.000000 after 0.01 sec. (15.72 ticks)
Tried aggregator 1 time.
MIP Presolve eliminated 989 rows and 0 columns.
Reduced MIP has 608855 rows, 488566 columns, and 2191878 nonzeros.
Reduced MIP has 487578 binaries, 988 generals, 0 SOSs, and 0 indicators.
Presolve time = 0.46 sec. (810.44 ticks)
Probing time = 0.23 sec. (134.41 ticks)
Tried aggregator 1 time.
Detecting symmetries...
Elapsed time for symmetry detection = 18.71 sec. (10000.65 ticks)
Elapsed time for symmetry detection = 37.25 sec. (20002.32 ticks)
Elapsed time for symmetry detection = 54.11 sec. (30008.61 ticks)
Found 1.656721e+626 symmetric permutations.
Reduced MIP has 608855 rows, 488566 columns, and 2191878 nonzeros.
Reduced MIP has 487578 binaries, 988 generals, 0 SOSs, and 0 indicators.
Presolve time = 63.08 sec. (36350.13 ticks)
Probing time = 0.20 sec. (134.36 ticks)
Clique table members: 12413.
MIP emphasis: balance optimality and feasibility.
MIP search method: dynamic search.
Parallel mode: deterministic, using up to 8 threads.
Root relaxation solution time = 61.30 sec. (404495.43 ticks)

        Nodes                                         Cuts/
   Node  Left     Objective  IInf  Best Integer    Best Bound    ItCnt     Gap

*     0+    0                            0.0000    80000.0000              --- 
*     0+    0                         8464.0000    80000.0000           845.18%
      0     0    80000.0000 165003     8464.0000    80000.0000        4  845.18%
*     0+    0                        15458.0000    80000.0000           417.53%
      0     0    80000.0000 64275    15458.0000   Cuts: 10000    23390  417.53%
      0     0    80000.0000 63731    15458.0000     Cuts: 538    26639  417.53%
      0     0    80000.0000 61969    15458.0000     Cuts: 287    29244  417.53%
*     0+    0                        15749.0000    80000.0000           407.97%
*     0+    0                        16836.0000    80000.0000           375.17%
      0     0        cutoff          16836.0000    80000.0000    29244  375.17%
      0     0    80000.0000 62194    16836.0000     Cuts: 708    30731  375.17%
      0     0    80000.0000 20555    16836.0000     Cuts: 195    32839  375.17%
      0     0    80000.0000 20177    16836.0000     Cuts: 807    36144  375.17%
*     0+    0                        16980.0000    80000.0000           371.14%
*     0+    0                        17039.0000    80000.0000           369.51%
*     0+    0                        17273.0000    80000.0000           363.15%
      0     0        cutoff          17273.0000    80000.0000    36144  363.15%
      0     0    80000.0000 20130    17273.0000     Cuts: 122    38326  363.15%
      0     0    80000.0000 20518    17273.0000     Cuts: 521    40892  363.15%
Heuristic still looking.
Heuristic still looking.
*     0+    0                        18241.0000    80000.0000           338.57%
      0     0        cutoff          18241.0000    80000.0000    40892  338.57%
      0     2    80000.0000 16869    18241.0000    80000.0000    40892  338.57%
Elapsed time = 1370.72 sec. (2360861.66 ticks, tree = 0.02 MB, solutions = 9)
      1     3    80000.0000 16982    18241.0000    80000.0000    41153  338.57%
      2     4    80000.0000 16871    18241.0000    80000.0000    41391  338.57%
      3     3    80000.0000 16512    18241.0000    80000.0000    41561  338.57%
      4     4    80000.0000 16980    18241.0000    80000.0000    41155  338.57%
      5     5    80000.0000 16392    18241.0000    80000.0000    42730  338.57%
      6     6    80000.0000 17857    18241.0000    80000.0000    50467  338.57%
      7     8    80000.0000 16261    18241.0000    80000.0000    44726  338.57%
      8     7    80000.0000 17136    18241.0000    80000.0000    46595  338.57%
      9     6    80000.0000 18790    18241.0000    80000.0000    50078  338.57%
     11    13    80000.0000 17165    18241.0000    80000.0000    68943  338.57%
Elapsed time = 1537.26 sec. (2446196.91 ticks, tree = 0.40 MB, solutions = 9)
     12    12    80000.0000 19099    18241.0000    80000.0000    67377  338.57%
     14     9    80000.0000 17575    18241.0000    80000.0000    54275  338.57%
     16    15    80000.0000 17575    18241.0000    80000.0000    73150  338.57%
     17    16    80000.0000 19540    18241.0000    80000.0000    81864  338.57%
     18    15    80000.0000 18984    18241.0000    80000.0000    73874  338.57%
     19    16    80000.0000 18865    18241.0000    80000.0000    75854  338.57%
     20    19    80000.0000 18849    18241.0000    80000.0000    85949  338.57%
     21    14    80000.0000 18715    18241.0000    80000.0000    79848  338.57%
     22    21    80000.0000 17150    18241.0000    80000.0000    97006  338.57%
     24    16    80000.0000 19555    18241.0000    80000.0000    83408  338.57%
Elapsed time = 1674.45 sec. (2508986.43 ticks, tree = 0.58 MB, solutions = 9)
     25     5    80000.0000 26772    18241.0000    80000.0000    69730  338.57%
     27    26    80000.0000 26253    18241.0000    80000.0000   145313  338.57%
     28    27    80000.0000 27076    18241.0000    80000.0000   151284  338.57%
     30    29    80000.0000 26243    18241.0000    80000.0000   151358  338.57%
     32    28    80000.0000 18788    18241.0000    80000.0000   155924  338.57%
     33     7    80000.0000 30338    18241.0000    80000.0000    78319  338.57%
     35    30    80000.0000 18355    18241.0000    80000.0000   203254  338.57%
     37    30    80000.0000 30376    18241.0000    80000.0000   192161  338.57%
     40    32    80000.0000 17137    18241.0000    80000.0000   214040  338.57%
     45    34    80000.0000 30341    18241.0000    80000.0000   192215  338.57%
Elapsed time = 1795.09 sec. (2560114.80 ticks, tree = 2.29 MB, solutions = 9)
     47    36    80000.0000 30333    18241.0000    80000.0000   192328  338.57%
     49    33    80000.0000 25372    18241.0000    80000.0000   242354  338.57%
     51    34    80000.0000 26553    18241.0000    80000.0000   243757  338.57%
     53    36    80000.0000 25355    18241.0000    80000.0000   243778  338.57%
     54    32    80000.0000 17844    18241.0000    80000.0000   207149  338.57%
     55    33    80000.0000 17668    18241.0000    80000.0000   209807  338.57%

Clique cuts applied:  458
Implied bound cuts applied:  178
Mixed integer rounding cuts applied:  2373
Zero-half cuts applied:  35

Root node processing (before b&c):
  Real time             = 1370.25 sec. (2360533.00 ticks)
Parallel b&c, 8 threads:
  Real time             =  430.19 sec. (212778.50 ticks)
  Sync time (average)   =   59.31 sec.
  Wait time (average)   =    0.00 sec.
                          ------------
Total (root+branch&cut) = 1800.43 sec. (2573311.51 ticks)

<<< solve


OBJECTIVE: 18241

<<< post process


<<< done

